unsat
(forall ((A (_ BitVec 1))
         (B (_ BitVec 1))
         (C (_ BitVec 1))
         (D (_ BitVec 1))
         (E (_ BitVec 1))
         (F (_ BitVec 3))
         (G (_ BitVec 22))
         (H (_ BitVec 1))
         (I (_ BitVec 32))
         (J (_ BitVec 1))
         (K (_ BitVec 1))
         (L (_ BitVec 1))
         (M (_ BitVec 1))
         (N (_ BitVec 22))
         (O (_ BitVec 1))
         (P (_ BitVec 1))
         (Q (_ BitVec 1))
         (R (_ BitVec 6))
         (S (_ BitVec 6))
         (T (_ BitVec 1))
         (U (_ BitVec 1))
         (V (_ BitVec 1))
         (W (_ BitVec 2))
         (X (_ BitVec 34))
         (Y (_ BitVec 32))
         (Z (_ BitVec 1))
         (A1 (_ BitVec 32))
         (B1 (_ BitVec 1))
         (C1 (_ BitVec 2))
         (D1 (_ BitVec 6))
         (E1 (_ BitVec 1))
         (F1 (_ BitVec 38))
         (G1 (_ BitVec 1))
         (H1 (_ BitVec 1))
         (I1 (_ BitVec 2))
         (J1 (_ BitVec 1))
         (K1 (_ BitVec 1))
         (L1 (_ BitVec 1))
         (M1 (_ BitVec 1))
         (N1 (_ BitVec 1))
         (O1 (_ BitVec 1))
         (P1 (_ BitVec 1))
         (Q1 (_ BitVec 1))
         (R1 (_ BitVec 1))
         (S1 (_ BitVec 1))
         (T1 (_ BitVec 1))
         (U1 (_ BitVec 1))
         (V1 (_ BitVec 1))
         (W1 (_ BitVec 32))
         (X1 (_ BitVec 1))
         (Y1 (_ BitVec 2))
         (Z1 (_ BitVec 1))
         (A2 (_ BitVec 22))
         (B2 (_ BitVec 1)))
  (! (let ((a!1 (or (not (= M #b1)) (not (= ((_ extract 1 1) F) #b1))))
           (a!2 (not (= (concat ((_ extract 30 16) Y)
                                ((_ extract 14 6) Y)
                                ((_ extract 7 0) Y))
                        Y)))
           (a!3 (or (= E1 #b1)
                    (not (= I1 #b10))
                    (not (= S1 #b1))
                    (= B1 #b0)
                    ((_ bit2bool 0) K1)
                    (not (= L #b0))
                    (not (= ((_ extract 15 7) Y) ((_ extract 14 6) Y)))
                    (not (= ((_ extract 7 2) Y) ((_ extract 5 0) Y)))
                    (not (= Y1 ((_ extract 1 0) Y)))))
           (a!4 (not (= (concat ((_ extract 31 17) Y)
                                ((_ extract 14 6) Y)
                                ((_ extract 7 0) Y))
                        Y)))
           (a!5 (or (= I1 #b00)
                    (= M1 #b0)
                    (not (= V #b0))
                    (not (= ((_ extract 12 12) I) #b0))))
           (a!6 (not (= Y
                        (concat ((_ extract 31 17) Y)
                                #x0a
                                T1
                                ((_ extract 7 0) Y)))))
           (a!7 (or (not ((_ bit2bool 21) F1))
                    (not (= ((_ extract 1 1) F) #b1))))
           (a!8 (not (ite (= S1 #b1)
                          (= ((_ extract 20 20) F1) #b1)
                          (= ((_ extract 21 21) F1) #b1))))
           (a!9 (not (ite (= S1 #b1)
                          (= ((_ extract 4 4) X) #b1)
                          (= ((_ extract 6 6) X) #b1))))
           (a!10 (or (not (= S1 #b1))
                     ((_ bit2bool 5) D1)
                     (not (= J #b0))
                     (= ((_ extract 4 4) (bvadd #b111111 D1)) #b0)
                     (= ((_ extract 5 5) X) #b1)))
           (a!11 (or (= S1 #b0)
                     (not (= ((_ extract 5 5) D1) #b0))
                     (not (bvule ((_ extract 4 0) D1) #b10001))))
           (a!13 (ite (= S1 #b1)
                      (concat ((_ extract 29 0) X) #b00)
                      ((_ extract 31 0) X)))
           (a!14 (= (ite (= S1 #b1) (concat ((_ extract 31 0) X) #b00) X)
                    #b0000000000000000001000000010100000))
           (a!15 (or (= S1 #b0)
                     (and (= ((_ extract 4 4) D1) #b0)
                          (= ((_ extract 3 3) D1) #b0)
                          (= ((_ extract 2 2) D1) #b0)
                          (= ((_ extract 1 1) D1) #b0)
                          (= ((_ extract 0 0) D1) #b0)
                          (= ((_ extract 5 5) D1) #b0))))
           (a!17 (or (not (= ((_ extract 5 5) D1) #b0))
                     (not (= ((_ extract 0 0) D1) #b0))
                     (not (= ((_ extract 1 1) D1) #b0))
                     (not (= ((_ extract 2 2) D1) #b0))
                     (not (= ((_ extract 3 3) D1) #b0))
                     (not (= ((_ extract 4 4) D1) #b0))))
           (a!27 (or (not (= L #b0)) (not (= ((_ extract 31 0) X) #x00022020))))
           (a!28 (ite (= P1 #b1)
                      (ite (= S1 #b1) (concat ((_ extract 31 0) X) #b00) X)
                      (concat #b00 A2 #b0010100000)))
           (a!29 (or (not (= ((_ extract 1 1) F) #b1)) (= N1 #b0)))
           (a!30 (or (= T #b0)
                     (= M1 #b0)
                     (not (= S1 #b1))
                     (= E1 #b0)
                     (not (= ((_ extract 12 12) I) #b0))
                     (= K #b1)))
           (a!31 (or (not (= L1 #b0))
                     (not (= T #b1))
                     (not (= ((_ extract 1 1) F) #b1))
                     (= K #b1))))
     (let ((a!12 (or (not (= M1 #b0))
                     (not (= ((_ extract 1 1) F) #b1))
                     (ite (= S1 #b1)
                          (= ((_ extract 5 5) X) #b1)
                          (= ((_ extract 7 7) X) #b1))
                     (= (ite a!11 I1 #b11) #b10)))
           (a!16 (ite a!15
                      (= ((_ extract 5 5) D1) #b0)
                      (= ((_ extract 5 5) (bvadd #b111111 D1)) #b0)))
           (a!18 (ite (or (= S1 #b0) (not a!17))
                      (= ((_ extract 5 5) D1) #b0)
                      (= ((_ extract 5 5) (bvadd #b111111 D1)) #b0)))
           (a!19 (not (ite (or (= S1 #b0) (not a!17))
                           (= ((_ extract 0 0) D1) #b0)
                           (= ((_ extract 0 0) D1) #b1))))
           (a!20 (ite (or (= S1 #b0) (not a!17))
                      (= ((_ extract 3 3) D1) #b0)
                      (= ((_ extract 3 3) (bvadd #b111111 D1)) #b0)))
           (a!21 (ite (or (= S1 #b0) (not a!17))
                      (= ((_ extract 2 2) D1) #b0)
                      (= ((_ extract 2 2) (bvadd #b111111 D1)) #b0)))
           (a!22 (ite (or (= S1 #b0) (not a!17))
                      (= ((_ extract 4 4) D1) #b0)
                      (= ((_ extract 4 4) (bvadd #b111111 D1)) #b0)))
           (a!23 (ite (or (= S1 #b0) (not a!17))
                      (= ((_ extract 1 1) D1) #b0)
                      (= ((_ extract 1 1) (bvadd #b111111 D1)) #b0)))
           (a!24 (ite (or (= S1 #b0) (not a!17)) D1 (bvadd #b111111 D1)))
           (a!32 (bvule (ite (or (= S1 #b0) (not a!17))
                             ((_ extract 4 0) D1)
                             (bvadd #b11111 ((_ extract 4 0) D1)))
                        #b10001)))
     (let ((a!25 ((_ bit2bool 3)
                   (ite (or (not a!18)
                            a!19
                            (not a!20)
                            (not a!21)
                            (not a!22)
                            (not a!23))
                        (bvadd #b111111 a!24)
                        a!24)))
           (a!33 (or (not (= M1 #b0))
                     (not a!16)
                     (not a!32)
                     (not (= (ite a!11 I1 #b11) #b10))
                     ((_ bit2bool 5) a!13)))
           (a!34 (or (not (= M1 #b0))
                     (not (= ((_ extract 1 1) F) #b1))
                     (not a!16)
                     (not a!32)
                     ((_ bit2bool 5) a!13)
                     ((_ bit2bool 7) a!13))))
     (let ((a!26 (or (not (= M1 #b0))
                     (not (= P1 #b1))
                     (not (= L #b0))
                     (not (= ((_ extract 1 1) F) #b1))
                     (not a!16)
                     a!25)))
     (let ((a!35 (and (or (not ((_ bit2bool 21) F1)) (not ((_ bit2bool 2) F)))
                      (= B1 #b1)
                      (not ((_ bit2bool 24) F1))
                      (not ((_ bit2bool 32) X))
                      (not ((_ bit2bool 27) F1))
                      (not (= G1 #b0))
                      (not ((_ bit2bool 29) F1))
                      (or (= F #b000) (not (= S1 #b1)))
                      (or (not ((_ bit2bool 0) T)) (not (= P1 #b1)))
                      (or (= I1 #b00)
                          (not (= M1 #b1))
                          (not (= J #b0))
                          (not (= V #b0)))
                      (or (= I1 #b00) (not (= M #b1)))
                      (or ((_ bit2bool 1) I1) (= I1 #b00))
                      (or ((_ bit2bool 1) I1) (not (= E #b1)) (= M #b1))
                      (or (not (= F #b001)) (not (= N1 #b0)))
                      (or (= M1 #b0) (not (= M #b1)))
                      (not (= ((_ extract 22 22) F1) #b1))
                      (not (= ((_ extract 23 23) F1) #b1))
                      (or (not (= L #b0)) (= E #b0))
                      a!1
                      (or (= D1 #b000000) (not ((_ bit2bool 0) B1)))
                      (or (= ((_ extract 1 1) I1) #b1)
                          (not (= L1 #b0))
                          (not (= K #b0))
                          (= S R)
                          a!2)
                      (or (= S R) (= S (bvadd #b000001 R)))
                      (or (not (= L1 #b0))
                          (not (= E1 #b1))
                          (not (= K #b0))
                          (= S R)
                          a!2)
                      (not (= ((_ extract 1 1) F1) #b1))
                      (or (not (= T #b1)) (not (= J #b0)))
                      (or (not (= L1 #b0))
                          ((_ bit2bool 0) D1)
                          (not (= K #b0))
                          (not (= M1 #b0))
                          (= S R))
                      (or (not (= T #b0)) (= B1 #b0) (= S R))
                      (or (= E1 #b1)
                          (not (= P1 #b1))
                          ((_ bit2bool 0) M)
                          (not (= O1 #b1))
                          (not (= L #b0))
                          (not ((_ bit2bool 0) B1)))
                      (or (not ((_ bit2bool 33) X)) (not (= L #b0)))
                      (or (not (= P #b1)) (= ((_ extract 1 1) F) #b1))
                      (or (not (= N1 #b1)) (= ((_ extract 0 0) F) #b1))
                      (or (not (= K1 #b1)) (not (= D1 #b000000)))
                      (or (not (= I1 #b10))
                          ((_ bit2bool 10) Y)
                          (not (= D1 #b000000)))
                      (or (not (= P #b0)) (not (= F #b011)))
                      a!3
                      (or (not (= P1 #b1))
                          (not (= D1 #b000000))
                          (= ((_ extract 2 2) F) #b1))
                      (or (not (= M #b0))
                          (not (= P1 #b1))
                          (not (= B1 #b1))
                          (not (= J #b0))
                          (not (= O1 #b1))
                          (not (= L #b0)))
                      (or (not (= M #b1)) (= ((_ extract 2 2) F) #b1))
                      (or (= E #b0) (not ((_ bit2bool 0) E1)))
                      (or (not (= J #b0)) (= E #b0))
                      (or (= E1 #b1)
                          (= I1 #b00)
                          (not (= M1 #b1))
                          (not (= V #b0)))
                      (or (not ((_ bit2bool 0) F1)) (not (= D1 #b000000)))
                      (or (not ((_ bit2bool 21) F1))
                          (not (= D1 #b000000))
                          (= ((_ extract 0 0) I1) #b1)
                          a!4)
                      (or (not (= M #b1)) (= ((_ extract 0 0) F) #b1))
                      (or (not (= P1 #b1))
                          (= ((_ extract 0 0) F) #b1)
                          (not (= D1 #b000000)))
                      (not (= ((_ extract 25 25) F1) #b1))
                      (or (= F #b000)
                          (not (= I1 #b10))
                          (not (= P1 #b1))
                          (not (= L #b0))
                          (= ((_ extract 2 2) D1) #b1))
                      a!5
                      (or (not (= L1 #b0))
                          (not (= T #b1))
                          (= ((_ extract 0 0) I1) #b1)
                          (= K #b1)
                          a!6)
                      (or (not (= L1 #b0))
                          (not (= M1 #b0))
                          (not (= T #b1))
                          (= ((_ extract 0 0) I1) #b1)
                          (= K #b1))
                      (or (= I1 #b00)
                          (not (= L1 #b0))
                          (not (= M1 #b1))
                          (not (= V #b0)))
                      (or (= S1 #b0) (not ((_ bit2bool 21) F1)))
                      (or (= T1 #b0) (not ((_ bit2bool 0) B1)))
                      a!7
                      (not (= ((_ extract 26 26) F1) #b1))
                      (not (= ((_ extract 28 28) F1) #b1))
                      (not (= ((_ extract 4 4) X) #b1))
                      (not (= ((_ extract 0 0) X) #b1))
                      (not (= ((_ extract 1 1) X) #b1))
                      (not (= ((_ extract 2 2) X) #b1))
                      (or (not (= N1 #b1)) a!8)
                      a!9
                      (not (= ((_ extract 8 8) X) #b1))
                      a!10
                      a!12
                      (or (= I1 #b10)
                          (not (= F #b001))
                          (not (= M1 #b0))
                          ((_ bit2bool 7) X))
                      (or (= I1 #b10)
                          (not (= M1 #b0))
                          ((_ bit2bool 7) X)
                          (not (= S1 #b1)))
                      (or (not (= P #b1)) (= ((_ extract 0 0) F) #b1))
                      (not ((_ bit2bool 3) a!13))
                      (or (not ((_ bit2bool 2) N)) (not a!14))
                      (or ((_ bit2bool 0) P1) ((_ bit2bool 0) K1) (= E #b0))
                      a!26
                      a!27
                      (or ((_ bit2bool 7) X) (not (= L #b0)) (= I1 #b00))
                      (or (not (= L #b0))
                          (not (= X #b0000001000000000000000000000100000)))
                      (or (not (= K #b0)) (= E #b0))
                      (not (= a!28 #b0000000000000000000000001000100000))
                      a!29
                      a!30
                      (or (not (= M1 #b1)) (not (= P1 #b1)) (not (= T1 #b0)))
                      (or (not (= E1 #b1))
                          (not (= T #b0))
                          (not ((_ bit2bool 0) I1))
                          (not (= P1 #b1))
                          (not (= L #b0))
                          (not (= U #b1)))
                      (or (not (= L1 #b0))
                          (not (= T #b1))
                          (not (= F #b100))
                          (= K #b1))
                      a!31
                      a!33
                      a!34
                      (or (not (= F #b001))
                          a!4
                          (not a!16)
                          (not a!32)
                          ((_ bit2bool 5) a!13)
                          ((_ bit2bool 7) a!13))
                      (or (= Q #b0)
                          (not (= P1 #b1))
                          (not (= J #b0))
                          (not (= S R)))
                      (or ((_ bit2bool 7) X)
                          (not ((_ bit2bool 0) G1))
                          (not ((_ bit2bool 21) F1))
                          (= ((_ extract 1 1) F) #b1))
                      (or ((_ bit2bool 7) X)
                          (not (= S1 #b1))
                          ((_ bit2bool 0) K1)
                          (= ((_ extract 0 0) I1) #b1))
                      (or (not ((_ bit2bool 6) X)) (not (= S1 #b1)))
                      (or (not (= M1 #b1))
                          ((_ bit2bool 31) X)
                          (not ((_ bit2bool 28) X))
                          ((_ bit2bool 22) X)
                          (= ((_ extract 5 5) X) #b1))
                      (or ((_ bit2bool 7) X) (not (= M1 #b1)))
                      (or (not ((_ bit2bool 9) X)) (not (= L #b0)))
                      (or (= U #b0)
                          (not ((_ bit2bool 0) N))
                          (not ((_ bit2bool 2) N))
                          ((_ bit2bool 12) X)
                          (not (= L #b0)))
                      (or (not ((_ bit2bool 26) X))
                          (not ((_ bit2bool 11) N))
                          ((_ bit2bool 21) X)
                          ((_ bit2bool 15) X))
                      (or (not ((_ bit2bool 11) N))
                          ((_ bit2bool 23) X)
                          (not ((_ bit2bool 28) X))
                          (not ((_ bit2bool 9) X))
                          ((_ bit2bool 17) X))
                      (or (= U #b0)
                          ((_ bit2bool 0) N)
                          ((_ bit2bool 1) N)
                          ((_ bit2bool 2) N)
                          ((_ bit2bool 12) X)
                          (not (= L #b0)))
                      (or (= ((_ extract 32 32) X) #b1)
                          (not (= M1 #b1))
                          (not ((_ bit2bool 33) X))
                          (not ((_ bit2bool 28) X))
                          ((_ bit2bool 22) X))
                      (or (= S1 #b0)
                          (not ((_ bit2bool 1) N))
                          (not (= L #b0))
                          ((_ bit2bool 10) X)
                          ((_ bit2bool 11) X)))))
       (= (INV!slice!1 A
                       B
                       C
                       D
                       E
                       F
                       G
                       H
                       I
                       J
                       K
                       L
                       M
                       N
                       O
                       P
                       Q
                       R
                       S
                       T
                       U
                       V
                       W
                       X
                       Y
                       Z
                       A1
                       B1
                       C1
                       D1
                       E1
                       F1
                       G1
                       H1
                       I1
                       J1
                       K1
                       L1
                       M1
                       N1
                       O1
                       P1
                       Q1
                       R1
                       S1
                       T1
                       U1
                       V1
                       W1
                       X1
                       Y1
                       Z1
                       A2
                       B2)
          a!35))))))
     :weight 0))
